12 66
1 2 3
1 3 4
1 4 1
1 5 2
1 6 3
1 7 2
1 8 2
1 9 1
1 10 3
1 11 3
1 12 3
2 3 3
2 4 3
2 5 1
2 6 2
2 7 3
2 8 1
2 9 5
2 10 2
2 11 3
2 12 5
3 4 4
3 5 3
3 6 4
3 7 5
3 8 2
3 9 3
3 10 2
3 11 5
3 12 3
4 5 2
4 6 3
4 7 2
4 8 3
4 9 4
4 10 5
4 11 3
4 12 4
5 6 1
5 7 5
5 8 3
5 9 4
5 10 1
5 11 2
5 12 1
6 7 3
6 8 1
6 9 4
6 10 3
6 11 2
6 12 5
7 8 1
7 9 3
7 10 1
7 11 3
7 12 3
8 9 4
8 10 3
8 11 5
8 12 5
9 10 5
9 11 4
9 12 2
10 11 4
10 12 2
11 12 4
